(declare-const y0 Real)
(declare-const y1 Real)
(declare-const y2 Real)
(declare-const y3 Real)
(declare-const y4 Real)
(declare-const y5 Real)
(declare-const y6 Real)
(declare-const y7 Real)
(declare-const y8 Real)
(declare-const y9 Real)
(declare-const y10 Real)
(declare-const y11 Real)
(assert (< y10 y7))
(assert (< 55 22))
(assert (< 11 y10))
(assert (= (= 93 84) (= (= true false) (< y0 70))))
(assert (< (+ y4 y6) y10))
(assert (< y11 (+ 0 y2)))
(assert (< y10 44))
(assert (= (+ 45 y3) 73))
(assert (= 9 95))
(assert (= (< 84 y8) (= y5 59)))
(check-sat)
